minizinc_built_ins/set/model.fzn
% Generated by MiniZinc 2.9.4
% Solver library: C:\Program Files\MiniZinc\share\minizinc\gecode
% Command line invocation: C:\Program Files\MiniZinc\minizinc.exe -c -O0 --solver gecode model.mzn 

var 35..35: area:: is_defined_var;
constraint int_times(7,5,area):: defines_var(area);
solve  satisfy;
